Solver command line: ['C:\\Program Files\\IBM\\ILOG\\CPLEX_Studio2211\\cplex\\bin\\x64_win64\\cplex.exe']


Welcome to IBM(R) ILOG(R) CPLEX(R) Interactive Optimizer 22.1.1.0
  with Simplex, Mixed Integer & Barrier Optimizers
5725-A06 5725-A29 5724-Y48 5724-Y49 5724-Y54 5724-Y55 5655-Y21
Copyright IBM Corp. 1988, 2022.  All Rights Reserved.

Type 'help' for a list of available commands.
Type 'help' followed by a command name for more
information on commands.

CPLEX> Logfile 'cplex.log' closed.
Logfile 'C:\Users\wangy\Documents\GitHub\re_optimization\result_site_specific\tmpqc1180_t.cplex.log' open.
CPLEX> Problem 'C:\Users\wangy\Documents\GitHub\re_optimization\result_site_specific\tmpghv566ay.pyomo.lp' read.
Read time = 0.31 sec. (9.13 ticks)
CPLEX> Problem name         : C:\Users\wangy\Documents\GitHub\re_optimization\result_site_specific\tmpghv566ay.pyomo.lp
Objective sense      : Minimize
Variables            :   65769  [Nneg: 35068,  Free: 8792,  Binary: 9,
                                 Other: 21900]
Objective nonzeros   :      17
Linear constraints   :   87665  [Less: 46741,  Greater: 5,  Equal: 40919]
  Nonzeros           :  225057
  RHS nonzeros       :    3790

Variables            : Min LB: 0.000000         Max UB: 1.000000       
Objective nonzeros   : Min   : 1.000000         Max   : 1.000000       
Linear constraints   :
  Nonzeros           : Min   : 0.004587778      Max   : 100000.0       
  RHS nonzeros       : Min   : 0.06100000       Max   : 100000.0       
CPLEX> Version identifier: 22.1.1.0 | 2022-11-27 | 9160aff4d
Tried aggregator 3 times.
MIP Presolve eliminated 52598 rows and 32156 columns.
Aggregator did 10213 substitutions.
Reduced MIP has 24854 rows, 23400 columns, and 74419 nonzeros.
Reduced MIP has 5 binaries, 0 generals, 0 SOSs, and 0 indicators.
Presolve time = 0.20 sec. (225.52 ticks)
Found incumbent of value 256817.206103 after 0.28 sec. (326.28 ticks)
Probing time = 0.00 sec. (1.33 ticks)
Tried aggregator 1 time.
Detecting symmetries...
Reduced MIP has 24854 rows, 23400 columns, and 74419 nonzeros.
Reduced MIP has 5 binaries, 0 generals, 0 SOSs, and 0 indicators.
Presolve time = 0.03 sec. (47.68 ticks)
Probing time = 0.02 sec. (1.23 ticks)
MIP emphasis: balance optimality and feasibility.
MIP search method: dynamic search.
Parallel mode: deterministic, using up to 16 threads.
Root relaxation solution time = 1.05 sec. (736.55 ticks)

        Nodes                                         Cuts/
   Node  Left     Objective  IInf  Best Integer    Best Bound    ItCnt     Gap

*     0+    0                       256817.2061    -5828.5987           102.27%
      0     0     4534.4861     1   256817.2061     4534.4861       46   98.23%
*     0+    0                         4761.7740     4534.4861             4.77%
      0     0        cutoff           4761.7740                    514    0.00%
Elapsed time = 1.69 sec. (1556.33 ticks, tree = 0.01 MB, solutions = 2)

Root node processing (before b&c):
  Real time             =    1.69 sec. (1559.08 ticks)
Parallel b&c, 16 threads:
  Real time             =    0.00 sec. (0.00 ticks)
  Sync time (average)   =    0.00 sec.
  Wait time (average)   =    0.00 sec.
                          ------------
Total (root+branch&cut) =    1.69 sec. (1559.08 ticks)

Solution pool: 2 solutions saved.

MIP - Integer optimal solution:  Objective =  4.7617739964e+03
Solution time =    1.69 sec.  Iterations = 514  Nodes = 0
Deterministic time = 1559.27 ticks  (924.29 ticks/sec)

CPLEX> Incumbent solution written to file 'C:\Users\wangy\Documents\GitHub\re_optimization\result_site_specific\tmpwqle32es.cplex.sol'.
CPLEX> 
